c --- [ banner ] -------------------------------------------------------------
c 
c CaDiCaL Radically Simplified CDCL SAT Solver
c Copyright (c) 2016-2021 A. Biere, M. Fleury, N. Froleyks
c 
c Version 1.5.2 a5f15211db36c3956764e18194dd5bd63bf3b5e6
c g++ (GCC) 9.3.0 -Wall -Wextra -O3 -DNDEBUG
c Fri Oct 21 01:27:37 EDT 2022 Linux gra-login3 3.10.0-1160.66.1.el7.x86_64 x86_64
c 
c --- [ limit ] --------------------------------------------------------------
c 
c setting conflict limit to 200000 conflicts (due to '200000')
c 
c --- [ parsing input ] ------------------------------------------------------
c 
c reading DIMACS file from '33.cubes4761.adj'
c opening file to read '33.cubes4761.adj'
c found 'p cnf 6160 1595483' header
c parsed 1595483 clauses in 19.59 seconds process time
c closing file '33.cubes4761.adj'
c after reading 1457566832 bytes 1390.0 MB
c 
c --- [ options ] ------------------------------------------------------------
c 
c all options are set to their default value
c 
c --- [ solving ] ------------------------------------------------------------
c 
c time measured in process time since initialization
c 
c  seconds    reductions  redundant   irredundant
c          MB     restarts       trail       variables
c            level   conflicts       glue         remaining
c 
c * 19.59 1379  0 0   0    0    0  0% 0 1595422 2368 38%
c { 20.31 1422  0 0   0    0    0  0% 0 1595422 2368 38%
c i 20.82 1443 457 0   0   35   20 23% 2 1595422 2367 38%
c i 21.57 1472 607 0   1   44   27 27% 3 1595422 2335 38%
c i 25.73 1517 178 0  31  164  135 27% 24 1595422 2331 38%
c - 30.58 1492 107 1  44  301  194 25% 21 414276 2331 38%
c i 30.68 1442 106 1  45  305  197 25% 21 414276 2316 38%
c i 31.45 1409 84 1  54  427  254 24% 21 414276 2315 38%
c i 31.74 1409 83 1  61  451  276 24% 21 414276 2314 38%
c i 31.85 1409 82 1  62  455  279 24% 20 414276 2313 38%
c i 31.92 1409 80 1  63  474  296 25% 20 414276 2312 38%
c i 32.03 1409 81 1  65  484  305 25% 21 414276 2311 38%
c i 32.05 1409 81 1  65  487  307 25% 21 414276 2310 38%
c i 32.75 1410 70 1  77  629  360 24% 20 414276 2309 37%
c i 32.83 1410 70 1  77  630  360 24% 20 414276 2308 37%
c i 32.91 1410 70 1  77  639  368 24% 20 414276 2307 37%
c i 33.21 1410 72 1  81  653  381 24% 22 414276 2306 37%
c i 33.73 1411 72 1  91  690  406 24% 22 414276 2305 37%
c i 33.79 1411 72 1  93  698  412 24% 23 414276 2304 37%
c i 33.80 1411 73 1  94  703  416 24% 23 414276 2303 37%
c 
c  seconds    reductions  redundant   irredundant
c          MB     restarts       trail       variables
c            level   conflicts       glue         remaining
c 
c i 34.10 1411 73 1  99  721  433 25% 23 414276 2302 37%
c i 34.20 1411 72 1  99  723  434 25% 23 414276 2301 37%
c i 35.15 1412 74 1 115  791  491 25% 25 414276 2298 37%
c i 35.57 1412 76 1 123  824  522 25% 27 414276 2297 37%
c i 36.78 1412 78 1 139  897  587 25% 27 414276 2296 37%
c i 37.02 1413 78 1 144  917  605 25% 28 414276 2295 37%
c i 37.66 1413 76 1 152  965  648 26% 28 414276 2294 37%
c i 37.70 1413 76 1 152  977  657 26% 27 414276 2293 37%
c } 37.83 1413 76 1 152 1000  678 26% 27 414276 2293 37%
c [ 37.83 1413  0 1 152 1000  678  0% 0 414276 2293 37%
c O 37.88 1413 36 1 152 1002  680 20% 3 414276 2293 37%
c i 38.17 1413  8 1 152 1190  707 22% 7 414276 2292 37%
c i 38.19 1413  9 1 152 1193  709 22% 7 414276 2291 37%
c i 38.22 1413  9 1 152 1197  712 23% 8 414276 2290 37%
c i 38.26 1413 10 1 152 1205  717 23% 8 414276 2289 37%
c i 38.28 1413 10 1 152 1210  721 23% 8 414276 2288 37%
c i 38.28 1413 10 1 152 1211  721 23% 8 414276 2287 37%
c i 38.30 1413 11 1 152 1221  730 24% 9 414276 2286 37%
c i 38.33 1413 11 1 152 1229  737 24% 9 414276 2285 37%
c i 38.36 1413 13 1 152 1253  756 25% 11 414276 2284 37%
c 
c  seconds    reductions  redundant   irredundant
c          MB     restarts       trail       variables
c            level   conflicts       glue         remaining
c 
c i 38.39 1413 14 1 152 1270  771 25% 11 414276 2283 37%
c - 39.15 1592 14 2 152 1271  684 25% 11 413871 2283 37%
c i 39.44 1592 20 2 152 1410  794 28% 16 413871 2282 37%
c i 39.54 1592 22 2 152 1553  884 29% 19 413871 2279 37%
c i 39.69 1592 24 2 152 1822 1102 30% 20 413871 2278 37%
c i 39.74 1592 24 2 152 1906 1171 30% 20 413871 2277 37%
c i 40.50 1563 24 2 153 2166 1382 54% 20 413857 2276 37%
c i 40.59 1563 24 2 153 2279 1449 54% 20 413857 2275 37%
c i 40.75 1563 25 2 153 2527 1620 53% 22 413857 2274 37%
c - 41.17 1386 27 3 153 2728 1437 53% 23 413848 2274 37%
c ] 41.43 1386 28 3 153 3000 1613 53% 23 413848 2274 37%
c { 41.43 1386 76 3 153 3000 1613 69% 27 413848 2274 37%
c F 41.43 1386 76 3 153 3004 1617 69% 27 413848 2274 37%
c i 41.77 1386 72 3 153 3083 1684 67% 26 413848 2273 37%
c i 42.77 1386 67 3 170 3324 1879 63% 26 413848 2272 37%
c i 43.70 1386 65 3 201 3523 2046 61% 27 413848 2260 37%
c i 44.29 1386 64 3 206 3631 2139 60% 28 413848 2249 37%
c i 46.56 1386 57 3 237 4464 2834 56% 27 413848 2248 36%
c - 47.72 1555 55 4 251 4668 2164 56% 27 413578 2248 36%
c d 48.77 1555 53 4 257 5002 2435 55% 26 413564 2241 36%
c 
c  seconds    reductions  redundant   irredundant
c          MB     restarts       trail       variables
c            level   conflicts       glue         remaining
c 
c 2 48.86 1556 53 4 257 5002 3339 55% 26 413563 2234 36%
c p 51.42 1556 53 4 257 5002 5528 55% 26 413563 2179 35%
c d 52.04 1556 53 4 257 5002 5424 55% 26 361489 2178 35%
c d 52.30 1556 53 4 257 5002 5424 55% 26 361487 2177 35%
c # 53.55 1556 45 4 273 6007 6162 53% 24 361487 2177 35%
c } 54.69 1556 42 4 277 7002 6931 52% 23 361487 2177 35%
c [ 54.69 1556 28 4 277 7002 6931 53% 23 361487 2177 35%
c - 55.05 1386 27 5 278 7092 3000 52% 23 361487 2177 35%
c - 56.96 1522 25 6 279 9896 3323 51% 22 361487 2177 35%
c I 57.04 1522 25 6 279 10009 3417 50% 22 361487 2177 35%
c - 59.60 1387 29 7 281 13167 3512 51% 25 361487 2177 35%
c ] 60.91 1387 30 7 282 15003 4810 51% 26 361487 2177 35%
c { 60.91 1387 42 7 282 15003 4810 52% 23 361487 2177 35%
c 2 60.99 1387 42 7 282 15003 5763 52% 23 361486 2177 35%
c p 62.62 1387 42 7 282 15003 7925 52% 23 361486 2177 35%
c B 62.76 1387 42 7 282 15011 7933 52% 23 361486 2177 35%
c - 65.55 1387 36 8 310 16906 4575 53% 22 361486 2177 35%
c s 67.19 1387 33 8 341 18793 5750 52% 21 358701 2177 35%
c v 70.60 1387 33 8 341 18793 5750 52% 21 358678 2177 35%
c t 70.71 1387 33 8 341 18793 5744 52% 21 358667 2177 35%
c 
c  seconds    reductions   redundant   irredundant
c          MB     restarts        trail       variables
c            level    conflicts       glue        remaining
c 
c e 72.00 1389 33 8 341 18793 5429 52% 21 356559 932 15%
c s 72.13 1389 33 8 341 18793 5429 52% 21 355715 932 15%
c W 76.71 1524 33 8 541 21013 7037 67% 21 355715 932 15%
c - 77.23 1389 33 9 566 21115 4954 67% 21 355715 932 15%
c - 88.73 1389 34 10 916 25769 5822 68% 22 355715 932 15%
c F 90.27 1389 32 10 921 28015 7378 69% 21 355715 932 15%
c p 96.62 1389 32 10 1030 30003 10738 69% 21 355715 932 15%
c - 98.75 1389 32 11 1096 30887 6447 69% 21 355715 932 15%
c } 98.81 1389 32 11 1096 31003 6522 69% 21 355715 932 15%
c [ 98.81 1389 30 11 1096 31003 6522 123% 26 355715 932 15%
c B 100.75 1389 30 11 1099 36016 9805 104% 25 355715 932 15%
c - 101.61 1389 30 12 1099 36470 6753 103% 25 355715 932 15%
c - 105.60 1389 33 13 1103 42521 7509 93% 27 355715 932 15%
c W 108.28 1389 32 13 1103 45017 8991 91% 27 355715 932 15%
c - 110.70 1389 31 14 1104 49035 7321 87% 26 355715 932 15%
c p 112.77 1389 31 14 1104 50006 10072 86% 26 355715 932 15%
c s 114.90 1389 30 14 1104 53098 11932 85% 26 354878 932 15%
c v 119.36 1389 30 14 1104 53098 11932 85% 26 354860 932 15%
c w 119.67 1389 30 14 1104 53098 11932 85% 26 354860 932 15%
c e 120.95 1389 30 14 1104 53098 11930 85% 26 354854 928 15%
c 
c  seconds     reductions      redundant   irredundant
c           MB      restarts          trail       variables
c             level      conflicts        glue        remaining
c 
c s 121.13 1389 30 14 1104 53098 11930 85% 26 354189 928 15%
c O 124.02 1389 30 14 1105 55020 13093 84% 26 354189 928 15%
c ] 124.42 1389 30 14 1106 55485 13411 83% 26 354189 928 15%
c 1 124.42 1389 30 14 1106 55485 13411 83% 26 354189 928 15%
c 
c --- [ writing output ] -----------------------------------------------------
c 
c writing simplified CNF to DIMACS file 'simp/33.cubes4761.adj.simp1'
c * 124.42 1389 30 14 1106 55485 13411 83% 26 354189 928 15%
c opening file to write 'simp/33.cubes4761.adj.simp1'
c writing 'p cnf 6160 354189' header
c closing file 'simp/33.cubes4761.adj.simp1'
c after writing 153369345 bytes 146.3 MB
c wrote 354189 clauses in 1.08 seconds process time
c 
c --- [ writing extension ] --------------------------------------------------
c 
c writing extension stack to 'simp/33.cubes4761.adj.ext1'
c opening file to write 'simp/33.cubes4761.adj.ext1'
c closing file 'simp/33.cubes4761.adj.ext1'
c after writing 81993 bytes 0.1 MB
c wrote 3705 witnesses in 0.00 seconds process time
c 
c --- [ result ] -------------------------------------------------------------
c 
s SATISFIABLE
c 
c --- [ run-time profiling ] -------------------------------------------------
c 
c process time taken by individual solving procedures
c (percentage relative to process time for solving)
c 
c        81.80   78.03% search
c        54.76   52.23% unstable
c        25.06   23.90% stable
c        23.03   21.97% simplify
c        19.59   18.69% parse
c         8.21    7.83% vivify
c         7.47    7.13% probe
c         4.82    4.60% elim
c         1.27    1.21% walk
c         0.72    0.68% lucky
c         0.61    0.58% subsume
c         0.21    0.20% ternary
c   =================================
c       104.83   83.53% solve
c 
c last line shows process time for solving
c (percentage relative to total process time)
c 
c --- [ statistics ] ---------------------------------------------------------
c 
c chronological:              9113        16.42 %  of conflicts
c conflicts:                 55485       529.28    per second
c decisions:                130672      1246.50    per second
c eliminated:                 1249        20.28 %  of all variables
c fixed:                       830        13.47 %  of all variables
c learned:                   54435        98.11 %  per conflict
c learned_lits:           10253935       100.00 %  learned literals
c minimized:                     0         0.00 %  learned literals
c shrunken:                6288389        61.33 %  learned literals
c minishrunken:             828594         8.08 %  learned literals
c propagations:            5245230         0.05 M  per second
c reduced:                   26637        48.01 %  per conflict
c rephased:                     10      5548.50    interval
c restarts:                   1106        50.17    interval
c stabilizing:                   3        62.15 %  of conflicts
c substituted:                   9         0.15 %  of all variables
c subsumed:                  21397         0.62 %  of all clauses
c strengthened:               9634         0.28 %  of all clauses
c ternary:                    2952         0.65 %  of resolved
c vivified:                     60         0.00 %  of all clauses
c walked:                        2     27742.50    interval
c weakened:                   2875         3.00    average size
c 
c seconds are measured in process time for solving
c 
c --- [ resources ] ----------------------------------------------------------
c 
c total process time since initialization:       125.50    seconds
c total real time since initialization:          127.13    seconds
c maximum resident set size of process:         1770.07    MB
c 
c --- [ shutting down ] ------------------------------------------------------
c 
c exit 10
WARNING! DIMACS header mismatch: wrong number of variables.
============================[ Problem Statistics ]=============================
|                                                                             |
|  Number of variables:          3755                                         |
|  Number of clauses:          354189                                         |
|  Parse time:                   1.96 s                                       |
|  Simplification time:          0.04 s                                       |
|                                                                             |
============================[ Search Statistics ]====================================================
| Conflicts |          ORIGINAL         |          LEARNT          | Num Sols |      SUBGRAPHS      |
|           |    Vars  Clauses Literals |    Limit  Clauses Lit/Cl |          | Canonical Noncanon. |
=====================================================================================================
|       100 |    3661   354189 33502823 |     2000      100    109 |        0 |        19         0 |
|       262 |    3661   354201 33503071 |     2000      262    109 |        0 |        26        12 |
|       487 |    3661   354201 33503071 |     2000      487     99 |        0 |        36        12 |
|      1201 |    3661   354578 33509812 |     2000     1201     70 |        0 |       180       389 |
|      1770 |    3661   354641 33511149 |     2000     1770     71 |        0 |       196       452 |
|      2546 |    3661   354658 33511630 |     3601     1547     51 |        0 |       206       469 |
|      3745 |    3661   354718 33512761 |     3601     2746     68 |        0 |       264       529 |
|      5710 |    3661   354975 33517504 |     5001     2911     51 |        0 |       366       786 |
|      8291 |    3661   354994 33517901 |     6310     3001     43 |        0 |       381       805 |
|     12165 |    3661   355024 33519202 |     7559     3724     47 |        0 |       413       835 |
|     19111 |    3661   356204 33546607 |     8789     6900     50 |        0 |       747      2015 |
|     27951 |    3661   356395 33551643 |    11199     6350     45 |        0 |       885      2206 |
|     41511 |    3661   356981 33564596 |    13604     8115     51 |        0 |      1123      2792 |
|     61421 |    3661   357430 33573114 |    16004    13825     68 |        0 |      1362      3241 |
|     90729 |    3661   357546 33575649 |    19603    17332     67 |        0 |      1451      3357 |
|    135239 |    3661   358267 33587275 |    24409    19048     68 |        0 |      1657      4078 |
|    201662 |    3661   359006 33600873 |    30414    18476     54 |        0 |      1989      4817 |
|    302671 |    3661   361489 33646782 |    37619    19290     45 |        0 |      2662      7300 |
|    451498 |    3661   362527 33667159 |    46010    23908     47 |        0 |      3117      8338 |
|    673866 |    3661   363212 33684170 |    55623    45489     77 |        0 |      3477      9023 |
|   1019216 |    3661   376037 33880582 |    68807    52023     69 |        0 |      7545     21848 |
|   1527149 |    3661   385182 34036100 |    84417    65966     70 |        0 |      9575     30993 |
|   2284735 |    3661   394586 34247509 |   103617    76352     64 |        0 |     14405     40397 |
|   3423577 |    3661   411154 34596877 |   127604    65181     41 |        0 |     19867     56965 |
|   5130194 |    3661   434360 35068676 |   155217   152611     73 |        1 |     28267     80170 |
|   7730173 |    3661   509223 36446328 |   191210   163583     70 |        2 |     46466    155032 |
|  11592003 |    3640   563828 37368191 |   231519   202922     66 |        3 |     66234    229186 |
=====================================================================================================
Number of solutions   : 17
Canonical subgraphs   : 98243          (13 /sec)
          order  3    : 1              (200000 /sec)
          order  4    : 1              (500000 /sec)
          order  5    : 1              (200000 /sec)
          order  6    : 1              (55556 /sec)
          order  7    : 1              (8696 /sec)
          order  8    : 2              (1360 /sec)
          order  9    : 7              (353 /sec)
          order 10    : 31             (112 /sec)
          order 11    : 188            (48 /sec)
          order 12    : 1215           (19 /sec)
          order 13    : 5595           (12 /sec)
          order 14    : 27836          (14 /sec)
          order 15    : 29578          (13 /sec)
          order 16    : 17208          (14 /sec)
          order 17    : 9495           (11 /sec)
          order 18    : 4917           (9 /sec)
          order 19    : 1083           (11 /sec)
          order 20    : 535            (14 /sec)
          order 21    : 531            (14 /sec)
          order 22    : 17             (1 /sec)
Noncanonical subgraphs: 396186         (138 /sec)
          order  3    : 0              (-nan /sec)
          order  4    : 0              (-nan /sec)
          order  5    : 0              (-nan /sec)
          order  6    : 0              (-nan /sec)
          order  7    : 0              (-nan /sec)
          order  8    : 0              (-nan /sec)
          order  9    : 0              (-nan /sec)
          order 10    : 0              (-nan /sec)
          order 11    : 0              (-nan /sec)
          order 12    : 0              (-nan /sec)
          order 13    : 20742          (3836 /sec)
          order 14    : 101897         (1212 /sec)
          order 15    : 48778          (727 /sec)
          order 16    : 216018         (85 /sec)
          order 17    : 6546           (70 /sec)
          order 18    : 1613           (39 /sec)
          order 19    : 0              (-nan /sec)
          order 20    : 0              (-nan /sec)
          order 21    : 0              (-nan /sec)
Canonicity checking   : 7701.27 s
Noncanonicity checking: 2866.66 s
Total canonicity time : 10567.9 s
database reductions   : 234
restarts              : 24825
conflicts             : 16896870       (825 /sec)
decisions             : 20492520       (0.00 % random) (1001 /sec)
propagations          : 848070703      (41422 /sec)
conflict literals     : 1770183045     (55.80 % deleted)
actual reward         : 0.245353
Memory used           : 654.00 MB
CPU time              : 20473.9 s

UNSATISFIABLE
